(set-info :smt-lib-version 2.6)
(set-logic QF_S)
(set-info :source |
Generated by: Murphy Berzish, Mitja Kulczynski, Federico Mora, Florin Manea, Joel Day, Dirk Nowotka, Vijay Ganesh, Zhengyang Lu
Generated on: 2020-10-01
Description: Translated from a collection of real-world regex queries, AutomataArk, collected by Loris D’Antoni and Fang Wang: https://github.com/lorisdanto/automatark
Application: Evaluate solvers on real-world regex queries
Target solver: Z3str3RE, CVC4, OSTRICH, Z3seq, Z3str3, Z3-Trau
Publications: Berzish, M., Kulczynski, M., Mora, F., Manea, F., Day, J. D., Nowotka, D., & Ganesh, V. (2021, July). An SMT solver for regular expressions and linear arithmetic over string length. In CAV 2021.
|)
(set-info :license "https://creativecommons.org/licenses/by/4.0/")
(set-info :category "industrial")
(set-info :status sat)

(declare-const X String)
(assert (not (str.in_re X (re.union (re.++ (re.* (re.union (re.range "A" "Z") (re.range "a" "z"))) (re.* (re.union (str.to_re ".") (str.to_re ",") (str.to_re " ") (str.to_re "\u{9}") (str.to_re "\u{a}") (str.to_re "\u{c}") (str.to_re "\u{d}"))) (re.+ (re.union (re.range "A" "Z") (re.range "a" "z"))) (re.+ (re.union (str.to_re ".") (str.to_re " ") (str.to_re "\u{9}") (str.to_re "\u{a}") (str.to_re "\u{c}") (str.to_re "\u{d}"))) ((_ re.loop 1 2) (re.range "0" "9")) (re.* (re.union (str.to_re ",") (str.to_re " ") (str.to_re "\u{9}") (str.to_re "\u{a}") (str.to_re "\u{c}") (str.to_re "\u{d}"))) ((_ re.loop 4 4) (re.range "0" "9"))) (re.++ (str.to_re " ") ((_ re.loop 0 4) (re.range "0" "9")) (re.* (re.union (str.to_re "-") (str.to_re ",") (str.to_re " ") (str.to_re "\u{9}") (str.to_re "\u{a}") (str.to_re "\u{c}") (str.to_re "\u{d}"))) ((_ re.loop 3 9) (re.union (re.range "A" "Z") (re.range "a" "z"))) (re.* (re.union (str.to_re "-") (str.to_re ",") (str.to_re " ") (str.to_re "\u{9}") (str.to_re "\u{a}") (str.to_re "\u{c}") (str.to_re "\u{d}"))) ((_ re.loop 1 2) (re.range "0" "9")) (re.* (re.union (str.to_re "-") (str.to_re ",") (str.to_re " ") (str.to_re "\u{9}") (str.to_re "\u{a}") (str.to_re "\u{c}") (str.to_re "\u{d}"))) ((_ re.loop 0 8) (re.union (re.range "A" "Z") (re.range "a" "z")))) (re.++ (str.to_re " \u{a}") ((_ re.loop 1 4) (re.range "0" "9")) (re.union (str.to_re "/") (str.to_re ".") (str.to_re "-")) ((_ re.loop 1 4) (re.range "0" "9")) (re.union (str.to_re "/") (str.to_re ".") (str.to_re "-")) ((_ re.loop 1 4) (re.range "0" "9")))))))
(assert (str.in_re X (re.++ (str.to_re "\u{22}reaction.txt\u{22}") (re.+ (re.range "0" "9")) (str.to_re "sErverdist.atlas-ia.comUser-Agent:\u{a}"))))
(assert (not (str.in_re X (re.++ (str.to_re "\u{a}") (re.union (str.to_re "C") (str.to_re "c")) (re.union (str.to_re "H") (str.to_re "h")) (re.union (str.to_re "A") (str.to_re "a")) (re.union (str.to_re "N") (str.to_re "n")) (re.union (str.to_re "D") (str.to_re "d")) (re.union (str.to_re "A") (str.to_re "a")) (re.union (str.to_re "N") (str.to_re "n")) (re.* re.allchar)))))
(check-sat)

(exit)
